000 001 001 001 004 004 002 000 001 000 000 002 004 003 003 005 005 010 006 005 003 003 004 002 000 000 000 000 000 000 001
000 001 001 002 006 005 003 001 000 001 001 001 003 002 002 003 010 015 007 006 004 004 004 002 000 000 000 000 000 000 000
000 001 001 004 006 003 001 000 000 000 001 001 004 002 002 002 011 017 013 007 005 004 004 001 000 000 000 000 000 -99 000
000 001 001 003 005 003 001 000 000 000 000 001 003 003 003 003 007 010 010 008 006 005 003 001 000 000 001 000 -99 -99 -99
000 001 001 002 002 001 001 001 000 000 000 000 001 001 004 004 002 003 007 011 005 003 002 001 001 000 001 001 -99 -99 -99
001 001 001 001 001 002 000 000 000 000 000 000 001 001 002 002 001 003 007 007 007 009 005 002 001 002 001 001 -99 -99 -99
000 001 001 001 001 002 001 001 001 001 001 000 000 001 001 000 001 001 004 004 006 017 006 002 002 002 001 -99 -99 -99 -99
001 001 001 001 001 002 002 001 001 002 002 000 000 000 000 000 000 002 005 003 004 011 015 005 003 001 000 -99 -99 000 -99
000 001 001 000 001 003 002 001 001 001 000 000 000 000 000 000 000 001 006 009 006 015 015 007 003 001 000 000 -99 000 000
000 000 001 001 002 002 001 001 000 000 000 000 000 000 000 000 000 001 004 013 014 020 028 022 004 002 000 000 -99 000 000
000 000 001 001 002 002 001 001 000 000 000 000 000 000 000 000 -99 000 003 011 017 023 029 015 007 001 000 000 000 000 000
000 000 001 000 001 000 000 000 000 000 000 000 000 000 000 000 -99 000 003 010 017 033 029 016 007 002 003 001 000 000 000
000 001 002 002 000 000 000 000 000 000 000 000 000 000 000 000 000 001 002 008 013 017 031 016 008 003 002 002 001 000 000
000 002 001 002 000 000 000 000 000 000 000 000 000 000 000 000 000 000 002 006 018 015 009 009 004 002 002 002 002 001 000
000 000 000 000 000 000 000 000 000 000 000 000 000 002 001 000 000 000 003 006 008 004 008 005 002 001 001 001 001 001 000
000 000 000 000 000 000 000 000 000 000 000 000 002 003 002 001 000 000 003 010 006 004 002 001 001 000 001 001 001 000 000
000 000 000 000 000 000 000 000 000 000 000 000 001 003 003 002 000 001 002 005 005 006 004 001 001 000 001 001 001 000 000
000 000 000 000 000 000 000 000 000 000 000 000 000 001 002 003 002 000 001 003 002 006 006 003 000 000 001 003 001 000 000
000 000 000 000 000 000 001 000 001 000 000 000 000 001 002 005 002 000 001 002 002 004 007 005 001 001 003 003 003 001 000
000 000 000 000 000 000 000 000 000 000 000 000 001 003 004 007 003 001 000 003 003 002 005 004 003 002 003 004 003 002 001
000 000 000 000 000 000 000 000 000 000 000 000 001 002 006 008 003 001 000 003 004 003 003 004 003 003 003 -99 -99 002 -99
000 000 000 000 000 000 000 000 000 000 000 000 002 002 008 008 003 004 001 002 004 006 005 004 003 003 001 -99 -99 -99 002
000 000 000 000 000 000 000 000 000 000 000 001 001 002 006 007 003 004 001 002 004 005 005 004 003 003 002 -99 -99 -99 002
000 000 000 000 000 000 000 000 000 001 000 001 000 001 002 004 002 002 001 002 002 003 004 004 003 003 002 -99 -99 -99 002
000 000 000 000 000 000 000 001 001 001 000 000 000 000 000 001 001 001 002 004 001 001 001 004 -99 -99 -99 -99 -99 001 002
000 -99 000 000 000 000 000 001 001 001 000 000 000 000 000 000 000 002 002 004 002 002 001 -99 -99 -99 -99 -99 -99 001 001
000 000 000 000 000 000 000 000 000 000 000 000 000 000 000 000 000 004 003 003 002 002 002 002 -99 -99 -99 -99 -99 000 000
000 000 000 000 000 000 000 000 000 000 000 -99 000 000 000 000 000 002 004 002 002 002 003 002 002 -99 -99 -99 -99 000 000
000 000 000 000 000 000 000 000 000 000 000 -99 -99 000 000 -99 000 000 002 002 004 002 004 002 001 -99 -99 -99 -99 000 000
000 000 000 000 000 000 000 000 000 000 000 -99 -99 000 000 -99 000 000 000 002 006 002 004 001 001 -99 -99 -99 -99 -99 000
000 000 000 000 000 000 000 000 000 000 000 -99 -99 000 000 -99 000 000 000 003 008 006 004 001 001 000 -99 -99 -99 -99 000
000 000 000 000 000 000 000 000 000 000 -99 -99 -99 000 000 -99 000 000 000 005 005 003 002 001 001 000 -99 -99 -99 001 000
000 000 000 000 000 000 000 000 000 000 -99 -99 -99 000 000 000 000 000 000 004 002 001 000 001 000 000 -99 000 001 001 000
000 000 000 000 000 000 000 000 000 000 000 -99 -99 000 000 000 000 000 000 001 001 000 000 000 000 000 -99 000 000 001 000
000 000 000 001 001 000 000 000 000 000 000 000 -99 000 000 000 000 000 000 000 000 000 000 000 000 000 000 000 000 000 000
000 000 000 002 002 000 000 000 000 000 000 000 000 000 000 000 000 000 000 000 000 000 000 000 000 000 000 000 000 000 000
000 000 001 001 001 000 000 000 000 000 000 000 000 000 000 000 000 000 000 000 000 000 000 000 000 000 000 000 000 000 000
000 001 002 000 001 000 000 000 000 000 000 000 000 000 000 000 000 000 000 000 000 000 000 000 000 000 000 000 000 000 000
001 001 002 001 000 000 000 000 000 000 000 000 000 000 000 000 000 000 000 -99 000 000 000 000 000 000 000 000 000 000 000
002 001 002 001 001 000 000 000 000 000 000 000 000 000 000 000 000 000 -99 000 -99 -99 000 000 000 000 000 000 000 000 000
000 001 000 001 001 001 001 000 000 000 000 000 000 000 000 000 000 000 000 -99 -99 000 000 000 000 000 000 000 000 000 001
000 000 000 000 001 002 001 000 000 000 000 000 000 000 000 000 000 000 000 000 -99 000 000 000 000 000 -99 000 000 000 001
000 000 000 001 001 002 001 001 000 000 000 000 000 000 000 000 000 000 000 000 000 000 000 000 000 000 -99 000 000 000 001
000 000 000 000 001 001 001 001 000 000 000 000 000 000 000 000 000 000 000 000 000 001 000 000 000 000 -99 000 000 000 001
000 000 000 000 000 001 001 000 000 000 000 000 000 000 000 000 000 000 001 000 000 001 000 000 000 000 000 000 000 -99 001
000 000 000 000 000 000 000 000 000 000 000 000 000 000 000 000 000 000 002 000 000 001 001 001 000 000 000 000 -99 000 001
000 000 000 000 000 000 000 000 001 001 000 000 001 000 000 000 001 000 001 000 000 000 001 001 001 003 002 001 002 000 000
000 000 000 000 000 000 001 004 003 001 001 001 001 001 001 001 001 001 001 001 000 000 001 000 002 009 004 002 003 001 000
000 000 000 000 000 000 002 003 002 001 001 001 002 001 001 001 001 002 004 001 000 000 004 003 003 012 009 003 003 001 001
000 000 000 000 000 001 003 004 002 001 001 002 002 001 000 000 001 004 004 002 000 003 008 006 008 011 008 012 022 004 001
000 000 000 000 002 005 006 004 003 001 001 001 000 000 000 000 001 002 003 002 001 008 006 007 019 029 023 017 017 003 001
000 000 000 001 003 004 004 005 004 001 000 000 000 000 000 000 000 002 001 000 004 002 004 010 024 045 012 006 004 001 001
000 000 000 000 002 002 002 003 002 001 000 000 000 000 000 000 000 000 000 000 003 001 004 009 035 026 009 003 001 001 001
-99 000 000 000 000 000 001 001 001 000 000 000 000 000 000 000 000 000 000 000 000 001 006 011 016 023 005 001 000 000 000
000 000 000 000 000 000 000 000 000 003 003 003 000 000 000 000 000 000 000 000 000 002 006 005 007 007 003 000 000 000 000
